solution status: optimal solution found
objective value:                                   14
thingy.thingy.chamber[2].first.vpump1.valves[0].vinlet_y                    3 	(obj:0)
thingy.thingy.chamber[2].first.vpump1.valves[0].vinlet_z                   17 	(obj:0)
thingy.ctrl_inlet_pinholes[1].hole_y                   -3 	(obj:0)
thingy.ctrl_inlet_pinholes[1].hole_z                   17 	(obj:0)
thingy.flush_inlet_pinholes[3].hole_y                   -2 	(obj:0)
thingy.flush_inlet_pinholes[3].hole_z                   14 	(obj:0)
thingy.ctrl_bead_hole_y                            -3 	(obj:0)
thingy.ctrl_bead_hole_z                            19 	(obj:0)
thingy.thingy.prep.vin_y                            1 	(obj:0)
thingy.thingy.prep.vin_z                           18 	(obj:0)
thingy.flush_bead_hole_y                           -3 	(obj:0)
thingy.flush_bead_hole_z                           16 	(obj:0)
thingy.flush_inlet_pinholes[2].hole_y                   -2 	(obj:0)
thingy.flush_inlet_pinholes[2].hole_z                   18 	(obj:0)
thingy.ctrl_inlet_pinholes[2].hole_y                    2 	(obj:0)
thingy.ctrl_inlet_pinholes[2].hole_z                   14 	(obj:0)
thingy.ctrl_inlet_pinholes[4].hole_y                   -3 	(obj:0)
thingy.ctrl_inlet_pinholes[4].hole_z                   18 	(obj:0)
thingy.thingy.chamber[0].first.vpump2.valves[0].vinlet_y                   -1 	(obj:0)
thingy.thingy.chamber[0].first.vpump2.valves[0].vinlet_z                   20 	(obj:0)
thingy.flush_stage_inlet_hole_y                     3 	(obj:0)
thingy.flush_stage_inlet_hole_z                    15 	(obj:0)
thingy.flush_inlet_pinholes[1].hole_y                   -1 	(obj:0)
thingy.flush_inlet_pinholes[1].hole_z                   14 	(obj:0)
thingy.thingy.chamber[2].first.vpump2.valves[0].vinlet_y                    2 	(obj:0)
thingy.thingy.chamber[2].first.vpump2.valves[0].vinlet_z                   18 	(obj:0)
thingy.thingy.chamber[1].first.vpump2.valves[0].vinlet_y                    2 	(obj:0)
thingy.thingy.chamber[1].first.vpump2.valves[0].vinlet_z                   19 	(obj:0)
thingy.thingy.chamber[1].first.vpump1.valves[0].vinlet_z                   17 	(obj:0)
thingy.thingy.chamber[3].first.vpump2.valves[0].vinlet_z                   18 	(obj:0)
thingy.flush_inlet_pinholes[4].hole_y                   -3 	(obj:0)
thingy.flush_inlet_pinholes[4].hole_z                   14 	(obj:0)
thingy.flush_inlet_pinholes[0].hole_y                   -3 	(obj:0)
thingy.flush_inlet_pinholes[0].hole_z                   15 	(obj:0)
thingy.thingy.chamber[0].first.vpump1.valves[0].vinlet_z                   20 	(obj:0)
thingy.thingy.chamber[3].first.vpump1.valves[0].vinlet_z                   19 	(obj:0)
thingy.ctrl_stage_inlet_hole_y                     -4 	(obj:0)
thingy.ctrl_stage_inlet_hole_z                     16 	(obj:0)
thingy.ctrl_inlet_pinholes[3].hole_y                    2 	(obj:0)
thingy.ctrl_inlet_pinholes[3].hole_z                   17 	(obj:0)
thingy.ctrl_inlet_pinholes[0].hole_y                    1 	(obj:0)
thingy.ctrl_inlet_pinholes[0].hole_z                   19 	(obj:0)
x47                                                 1 	(obj:1)
x64                                                 1 	(obj:1)
x75                                                 1 	(obj:1)
x78                                                 2 	(obj:1)
x87                                                 2 	(obj:1)
x96                                                 1 	(obj:1)
x103                                                1 	(obj:1)
x105                                                1 	(obj:1)
x106                                                2 	(obj:1)
x117                                                1 	(obj:1)
x119                                                1 	(obj:1)
